MARKOV
230
 2 2 2 2 2 2 2 2 2 2 2 2 2 2 2 2 2 2 2 2 2 2 2 2 2 2 2 2 2 2 2 2 2 2 2 2 2 2 2 2 2 2 2 2 2 2 2 2 2 2 2 2 2 2 2 2 2 2 2 2 2 2 2 2 2 2 2 2 2 2 2 2 2 2 2 2 2 2 2 2 2 2 2 2 2 2 2 2 2 2 2 2 2 2 2 2 2 2 2 2 2 2 2 2 2 2 2 2 2 2 2 2 2 2 2 2 2 2 2 2 2 2 2 2 2 2 2 2 2 2 2 2 2 2 2 2 2 2 2 2 2 2 2 2 2 2 2 2 2 2 2 2 2 2 2 2 2 2 2 2 2 2 2 2 2 2 2 2 2 2 2 2 2 2 2 2 2 2 2 2 2 2 2 2 2 2 2 2 2 2 2 2 2 2 2 2 2 2 2 2 2 2 2 2 2 2 2 2 2 2 2 2 2 2 2 2 2 2 2 2 2 2 2 2 2 2 2 2 2 2
854
1	0 
1	1 
1	2 
1	3 
1	4 
1	5 
1	6 
1	7 
1	8 
1	9 
1	10 
1	11 
1	12 
1	13 
1	14 
1	15 
1	16 
1	17 
1	18 
1	19 
1	20 
1	21 
1	22 
1	23 
1	24 
1	25 
1	26 
1	27 
1	28 
1	29 
1	30 
1	31 
1	32 
1	33 
1	34 
1	35 
1	36 
1	37 
1	38 
1	39 
1	40 
1	41 
1	42 
1	43 
1	44 
1	45 
1	46 
1	47 
1	48 
1	49 
1	50 
1	51 
1	52 
1	53 
1	54 
1	55 
1	56 
1	57 
1	58 
1	59 
1	60 
1	61 
1	62 
1	63 
1	64 
1	65 
1	66 
1	67 
1	68 
1	69 
1	70 
1	71 
1	72 
1	73 
1	74 
1	75 
1	76 
1	77 
1	78 
1	79 
1	80 
1	81 
1	82 
1	83 
1	84 
1	85 
1	86 
1	87 
1	88 
1	89 
1	90 
1	91 
1	92 
1	93 
1	94 
1	95 
1	96 
1	97 
1	98 
1	99 
1	100 
1	101 
1	102 
1	103 
1	104 
1	105 
1	106 
1	107 
1	108 
1	109 
1	110 
1	111 
1	112 
1	113 
1	114 
1	115 
1	116 
1	117 
1	118 
1	119 
1	120 
1	121 
1	122 
1	123 
1	124 
1	125 
1	126 
1	127 
1	128 
1	129 
1	130 
1	131 
1	132 
1	133 
1	134 
1	135 
1	136 
1	137 
1	138 
1	139 
1	140 
1	141 
1	142 
1	143 
1	144 
1	145 
1	146 
1	147 
1	148 
1	149 
1	150 
1	151 
1	152 
1	153 
1	154 
1	155 
1	156 
1	157 
1	158 
1	159 
1	160 
1	161 
1	162 
1	163 
1	164 
1	165 
1	166 
1	167 
1	168 
1	169 
1	170 
1	171 
1	172 
1	173 
1	174 
1	175 
1	176 
1	177 
1	178 
1	179 
1	180 
1	181 
1	182 
1	183 
1	184 
1	185 
1	186 
1	187 
1	188 
1	189 
1	190 
1	191 
1	192 
1	193 
1	194 
1	195 
1	196 
1	197 
1	198 
1	199 
1	200 
1	201 
1	202 
1	203 
1	204 
1	205 
1	206 
1	207 
1	208 
1	209 
1	210 
1	211 
1	212 
1	213 
1	214 
1	215 
1	216 
1	217 
1	218 
1	219 
1	220 
1	221 
1	222 
1	223 
1	224 
1	225 
1	226 
1	227 
1	228 
1	229 
2	1 41 
2	1 75 
2	1 113 
2	1 186 
2	1 214 
2	1 216 
2	2 3 
2	2 4 
2	2 6 
2	2 9 
2	2 11 
2	2 178 
2	2 180 
2	3 4 
2	3 5 
2	3 11 
2	3 120 
2	3 124 
2	4 120 
2	4 178 
2	4 183 
2	5 7 
2	5 11 
2	5 29 
2	5 124 
2	5 204 
2	6 8 
2	6 9 
2	6 19 
2	6 21 
2	6 180 
2	6 223 
2	7 10 
2	7 11 
2	7 29 
2	8 9 
2	8 10 
2	8 18 
2	8 21 
2	9 10 
2	9 11 
2	10 11 
2	12 13 
2	12 16 
2	12 91 
2	12 93 
2	12 108 
2	12 165 
2	13 14 
2	13 15 
2	13 16 
2	13 165 
2	14 15 
2	14 64 
2	14 65 
2	14 164 
2	14 165 
2	15 16 
2	15 65 
2	16 93 
2	17 42 
2	17 44 
2	17 113 
2	17 214 
2	17 215 
2	18 21 
2	18 23 
2	19 20 
2	19 21 
2	19 25 
2	19 221 
2	19 223 
2	20 22 
2	20 25 
2	20 221 
2	20 222 
2	21 23 
2	21 25 
2	22 24 
2	22 25 
2	23 24 
2	23 25 
2	24 25 
2	26 27 
2	26 28 
2	26 201 
2	26 202 
2	26 203 
2	27 28 
2	27 29 
2	28 29 
2	28 202 
2	28 204 
2	29 204 
2	30 31 
2	30 32 
2	30 33 
2	30 35 
2	30 36 
2	30 38 
2	31 34 
2	31 35 
2	31 36 
2	31 39 
2	31 166 
2	31 170 
2	31 172 
2	32 33 
2	32 35 
2	32 98 
2	32 101 
2	32 227 
2	33 38 
2	33 74 
2	33 101 
2	33 102 
2	34 39 
2	34 166 
2	35 148 
2	35 172 
2	35 227 
2	36 37 
2	36 38 
2	36 39 
2	37 38 
2	37 39 
2	37 70 
2	38 70 
2	38 74 
2	40 42 
2	40 43 
2	40 44 
2	40 108 
2	40 149 
2	40 165 
2	40 189 
2	41 42 
2	41 113 
2	41 149 
2	41 186 
2	41 189 
2	41 190 
2	42 44 
2	42 113 
2	42 149 
2	43 44 
2	43 66 
2	43 106 
2	43 107 
2	43 108 
2	44 66 
2	44 67 
2	44 68 
2	44 215 
2	45 47 
2	45 48 
2	45 99 
2	46 47 
2	46 48 
2	46 49 
2	46 50 
2	46 52 
2	47 48 
2	47 50 
2	48 49 
2	48 96 
2	48 99 
2	49 52 
2	49 100 
2	49 155 
2	49 158 
2	50 51 
2	50 52 
2	50 53 
2	51 52 
2	51 53 
2	51 154 
2	51 191 
2	52 153 
2	52 154 
2	52 158 
2	53 191 
2	53 192 
2	54 55 
2	54 56 
2	54 57 
2	54 60 
2	54 61 
2	55 57 
2	55 58 
2	55 60 
2	56 57 
2	56 61 
2	56 126 
2	56 127 
2	56 137 
2	56 139 
2	57 126 
2	58 60 
2	58 63 
2	59 60 
2	59 61 
2	59 62 
2	59 118 
2	59 119 
2	60 61 
2	60 62 
2	60 63 
2	61 118 
2	61 139 
2	61 142 
2	62 63 
2	62 119 
2	62 208 
2	63 205 
2	63 208 
2	64 65 
2	64 85 
2	64 86 
2	64 163 
2	64 164 
2	65 85 
2	66 67 
2	66 107 
2	66 150 
2	66 157 
2	67 68 
2	67 157 
2	67 229 
2	68 69 
2	68 215 
2	68 228 
2	68 229 
2	69 147 
2	69 161 
2	69 215 
2	69 228 
2	70 71 
2	70 74 
2	71 72 
2	71 73 
2	71 74 
2	72 73 
2	73 74 
2	73 102 
2	73 105 
2	74 102 
2	75 186 
2	75 200 
2	75 213 
2	75 216 
2	76 77 
2	76 78 
2	76 79 
2	76 206 
2	76 207 
2	77 78 
2	77 201 
2	77 203 
2	77 207 
2	78 79 
2	78 203 
2	80 81 
2	80 82 
2	80 84 
2	80 159 
2	80 161 
2	80 214 
2	80 215 
2	81 82 
2	81 159 
2	81 160 
2	81 162 
2	81 218 
2	81 219 
2	82 83 
2	82 84 
2	82 218 
2	83 84 
2	83 213 
2	83 216 
2	83 217 
2	83 218 
2	84 214 
2	84 216 
2	85 86 
2	85 89 
2	86 87 
2	86 89 
2	86 163 
2	86 212 
2	87 88 
2	87 89 
2	87 112 
2	87 210 
2	87 212 
2	88 89 
2	88 109 
2	88 112 
2	90 92 
2	90 94 
2	90 106 
2	90 151 
2	90 152 
2	90 193 
2	90 197 
2	91 93 
2	91 94 
2	91 95 
2	91 106 
2	91 108 
2	92 94 
2	92 95 
2	92 196 
2	92 197 
2	93 95 
2	94 95 
2	94 106 
2	96 97 
2	96 99 
2	96 100 
2	96 103 
2	96 104 
2	97 98 
2	97 100 
2	97 101 
2	97 103 
2	98 100 
2	98 101 
2	98 226 
2	98 227 
2	99 104 
2	100 155 
2	100 225 
2	100 226 
2	101 102 
2	101 103 
2	102 103 
2	102 105 
2	103 104 
2	103 105 
2	104 105 
2	106 107 
2	106 108 
2	106 152 
2	107 150 
2	107 152 
2	108 165 
2	109 110 
2	109 111 
2	109 112 
2	110 111 
2	110 112 
2	110 211 
2	110 220 
2	110 221 
2	111 221 
2	111 222 
2	112 210 
2	112 211 
2	113 214 
2	114 116 
2	114 117 
2	114 118 
2	114 140 
2	114 141 
2	114 142 
2	115 116 
2	115 118 
2	115 119 
2	115 123 
2	115 201 
2	115 202 
2	116 117 
2	116 118 
2	116 121 
2	116 122 
2	117 121 
2	117 140 
2	117 174 
2	118 119 
2	118 142 
2	119 201 
2	119 208 
2	120 121 
2	120 122 
2	120 124 
2	120 183 
2	121 122 
2	121 174 
2	121 177 
2	121 183 
2	122 123 
2	122 124 
2	123 124 
2	123 202 
2	123 204 
2	124 204 
2	125 127 
2	125 128 
2	125 132 
2	125 137 
2	125 138 
2	125 162 
2	125 219 
2	126 127 
2	126 128 
2	127 128 
2	127 137 
2	128 129 
2	128 132 
2	129 130 
2	129 131 
2	129 132 
2	130 131 
2	130 132 
2	130 162 
2	130 167 
2	131 167 
2	131 168 
2	132 162 
2	133 135 
2	133 144 
2	133 176 
2	133 213 
2	133 217 
2	134 135 
2	134 175 
2	134 179 
2	134 185 
2	134 188 
2	134 209 
2	135 175 
2	135 176 
2	135 188 
2	135 213 
2	136 137 
2	136 138 
2	136 139 
2	136 141 
2	136 143 
2	136 217 
2	136 218 
2	137 138 
2	137 139 
2	138 218 
2	138 219 
2	139 141 
2	139 142 
2	140 141 
2	140 143 
2	140 144 
2	140 174 
2	140 176 
2	141 142 
2	141 143 
2	143 144 
2	143 217 
2	144 176 
2	144 217 
2	145 146 
2	145 147 
2	145 148 
2	145 159 
2	145 161 
2	145 171 
2	145 172 
2	146 147 
2	146 148 
2	146 224 
2	146 227 
2	147 161 
2	147 224 
2	147 228 
2	148 172 
2	148 227 
2	149 189 
2	150 152 
2	150 153 
2	150 156 
2	150 157 
2	150 158 
2	151 152 
2	151 154 
2	151 191 
2	151 193 
2	152 153 
2	152 154 
2	153 154 
2	153 158 
2	154 191 
2	155 156 
2	155 158 
2	155 225 
2	156 157 
2	156 158 
2	156 225 
2	156 229 
2	157 229 
2	159 160 
2	159 161 
2	159 171 
2	160 162 
2	160 171 
2	160 173 
2	161 215 
2	162 167 
2	162 173 
2	162 219 
2	163 164 
2	163 187 
2	163 190 
2	163 212 
2	164 165 
2	164 189 
2	164 190 
2	165 189 
2	166 168 
2	166 169 
2	166 170 
2	167 168 
2	167 169 
2	167 173 
2	168 169 
2	169 170 
2	169 173 
2	170 171 
2	170 172 
2	170 173 
2	171 172 
2	171 173 
2	174 175 
2	174 176 
2	174 177 
2	175 176 
2	175 177 
2	175 179 
2	175 182 
2	177 182 
2	177 183 
2	178 180 
2	178 181 
2	178 182 
2	178 183 
2	179 181 
2	179 182 
2	179 209 
2	180 181 
2	180 220 
2	180 223 
2	181 182 
2	181 209 
2	181 211 
2	181 220 
2	182 183 
2	184 185 
2	184 186 
2	184 187 
2	184 188 
2	184 199 
2	184 200 
2	185 187 
2	185 188 
2	185 209 
2	185 210 
2	185 212 
2	186 190 
2	186 199 
2	187 190 
2	187 199 
2	187 212 
2	188 200 
2	188 213 
2	189 190 
2	190 199 
2	191 192 
2	191 193 
2	191 194 
2	192 194 
2	193 194 
2	193 197 
2	194 197 
2	194 198 
2	195 196 
2	195 197 
2	195 198 
2	196 197 
2	197 198 
2	200 213 
2	201 202 
2	201 203 
2	201 207 
2	201 208 
2	202 204 
2	205 206 
2	205 208 
2	206 207 
2	206 208 
2	207 208 
2	209 210 
2	209 211 
2	210 211 
2	210 212 
2	211 220 
2	213 216 
2	213 217 
2	214 215 
2	214 216 
2	217 218 
2	218 219 
2	220 221 
2	220 223 
2	221 222 
2	221 223 
2	224 225 
2	224 226 
2	224 227 
2	224 228 
2	224 229 
2	225 226 
2	225 229 
2	226 227 
2	228 229 
0	

2
 0.252912 1
2
 0.471619 1
2
 1 0.526865
2
 1 0.417573
2
 1 0.507375
2
 1 0.30309
2
 1 0.282043
2
 1 0.254634
2
 1 0.377433
2
 1 0.312472
2
 1 0.214954
2
 1 0.355089
2
 0.278505 1
2
 0.225856 1
2
 0.50032 1
2
 1 0.723809
2
 1 0.214069
2
 0.173605 1
2
 1 0.257728
2
 1 0.261537
2
 1 0.159638
2
 1 0.177373
2
 1 0.168313
2
 1 0.149514
2
 1 0.121398
2
 1 0.158667
2
 1 0.139641
2
 1 0.190572
2
 1 0.179157
2
 1 0.245372
2
 1 0.269448
2
 1 0.152267
2
 1 0.23244
2
 1 0.140119
2
 1 0.125034
2
 1 0.216655
2
 1 0.126806
2
 1 0.141999
2
 1 0.089891
2
 1 0.107018
2
 0.653801 1
2
 1 0.588915
2
 1 0.596505
2
 0.380358 1
2
 0.238309 1
2
 1 0.32086
2
 1 0.40883
2
 1 0.395186
2
 1 0.381616
2
 1 0.377879
2
 1 0.504836
2
 1 0.275101
2
 0.999982 1
2
 1 0.647322
2
 1 0.0888922
2
 1 0.109477
2
 1 0.224649
2
 1 0.127785
2
 1 0.117164
2
 1 0.192001
2
 1 0.101543
2
 1 0.182122
2
 1 0.108416
2
 1 0.0929994
2
 0.33616 1
2
 1 0.631912
2
 0.0364096 1
2
 0.0242198 1
2
 0.0197636 1
2
 0.0199156 1
2
 1 0.145385
2
 1 0.145419
2
 1 0.18023
2
 1 0.12422
2
 1 0.110882
2
 0.274354 1
2
 1 0.0550925
2
 1 0.0896953
2
 1 0.11264
2
 1 0.0681164
2
 1 0.96719
2
 0.483226 1
2
 0.498488 1
2
 0.597365 1
2
 1 0.497782
2
 1 0.765674
2
 0.183606 1
2
 1 0.360003
2
 1 0.165522
2
 1 0.253282
2
 1 0.321045
2
 1 0.423632
2
 1 0.1045
2
 1 0.171705
2
 1 0.705955
2
 1 0.146603
2
 1 0.380679
2
 1 0.495574
2
 1 0.397223
2
 1 0.366492
2
 1 0.562373
2
 1 0.195603
2
 1 0.1588
2
 1 0.219057
2
 1 0.220372
2
 1 0.147756
2
 0.322832 1
2
 0.0748142 1
2
 0.343448 1
2
 1 0.255866
2
 1 0.105676
2
 1 0.128517
2
 1 0.586899
2
 0.411085 1
2
 1 0.336458
2
 1 0.238807
2
 1 0.586505
2
 1 0.470068
2
 1 0.291773
2
 1 0.145833
2
 1 0.31456
2
 1 0.444169
2
 1 0.381796
2
 1 0.304218
2
 1 0.411271
2
 1 0.471743
2
 1 0.11135
2
 1 0.175133
2
 1 0.124182
2
 1 0.139144
2
 0.611032 1
2
 1 0.146717
2
 0.356105 1
2
 0.0114818 1
2
 0.0123104 1
2
 0.0142042 1
2
 1 0.822471
2
 1 0.337967
2
 1 0.60942
2
 1 0.326793
2
 1 0.780518
2
 1 0.639948
2
 1 0.283029
2
 0.844322 1
2
 0.622009 1
2
 0.678679 1
2
 1 0.782254
2
 0.76701 1
2
 1 0.39478
2
 0.484536 1
2
 0.0767193 1
2
 1 0.48831
2
 1 0.80287
2
 1 0.862456
2
 1 0.630763
2
 1 0.873654
2
 1 0.87111
2
 0.515233 1
2
 1 0.764941
2
 0.0392548 1
2
 0.0384006 1
2
 0.0385722 1
2
 0.0430074 1
2
 0.477399 1
2
 0.211762 1
2
 0.322795 1
2
 1 0.0998351
2
 0.944002 1
2
 1 0.112154
2
 1 0.325272
2
 1 0.240355
2
 0.855344 1
2
 1 0.364586
2
 1 0.910898
2
 1 0.563086
2
 0.375954 1
2
 0.564562 1
2
 1 0.426085
2
 1 0.577186
2
 0.546239 1
2
 1 0.306061
2
 1 0.433191
2
 1 0.872194
2
 1 0.676959
2
 1 0.344417
2
 0.352928 1
2
 0.643364 1
2
 1 0.512835
2
 0.329753 1
2
 0.286948 1
2
 0.41508 1
2
 1 0.223187
2
 1 0.244644
2
 1 0.202628
2
 1 0.215652
2
 1 0.136597
2
 1 0.122229
2
 1 0.0914427
2
 1 0.117643
2
 0.288602 1
2
 0.213849 1
2
 1 0.127182
2
 1 0.121677
2
 1 0.126585
2
 1 0.274606
2
 1 0.164334
2
 1 0.0675518
2
 1 0.130201
2
 1 0.103331
2
 0.024683 1
2
 0.280585 1
2
 0.103875 1
2
 0.115623 1
2
 1 0.972031
2
 1 0.326651
2
 0.32619 1
2
 1 0.153226
2
 0.0147971 1
2
 0.0234376 1
2
 0.0214054 1
2
 1 0.113808
2
 1 0.182643
2
 1 0.236218
2
 1 0.357681
2
 0.459837 1
2
 1 0.582103
2
 1 0.549295
2
 1 0.421821
2
 0.722428 1
2
 0.298874 1
4
 0.974868 0.286658 0.286658 1
4
 0.97739 0.286098 0.286098 1
4
 0.978652 0.289656 0.289656 1
4
 0.974102 0.284324 0.284324 1
4
 0.983334 0.29291 0.29291 1
4
 0.982341 0.29047 0.29047 1
4
 0.962743 0.255005 0.255005 1
4
 0.961554 0.255373 0.255373 1
4
 0.952312 0.248667 0.248667 1
4
 0.955258 0.249222 0.249222 1
4
 0.961123 0.252734 0.252734 1
4
 0.958373 0.254332 0.254332 1
4
 0.953703 0.251272 0.251272 1
4
 0.967294 0.258611 0.258611 1
4
 0.972414 0.259999 0.259999 1
4
 0.96686 0.255938 0.255938 1
4
 0.972741 0.26247 0.26247 1
4
 0.975586 0.263127 0.263127 1
4
 0.97154 0.262849 0.262849 1
4
 0.962904 0.257928 0.257928 1
4
 0.968109 0.261727 0.261727 1
4
 0.973945 0.258619 0.258619 1
4
 0.970777 0.257684 0.257684 1
4
 0.978879 0.261697 0.261697 1
4
 0.979538 0.264921 0.264921 1
4
 0.9813 0.264887 0.264887 1
4
 0.947725 0.243344 0.243344 1
4
 0.950549 0.24611 0.24611 1
4
 0.9421 0.242309 0.242309 1
4
 0.94353 0.242118 0.242118 1
4
 0.949002 0.248134 0.248134 1
4
 0.944642 0.24531 0.24531 1
4
 0.96518 0.251437 0.251437 1
4
 0.968382 0.25458 0.25458 1
4
 0.976464 0.258544 0.258544 1
4
 0.950657 0.243887 0.243887 1
4
 0.95333 0.24427 0.24427 1
4
 0.943849 0.23878 0.23878 1
4
 0.943636 0.239931 0.239931 1
4
 0.956171 0.247046 0.247046 1
4
 0.959344 0.250134 0.250134 1
4
 0.962041 0.250528 0.250528 1
4
 0.948569 0.275509 0.275509 1
4
 0.945431 0.274385 0.274385 1
4
 0.950647 0.280082 0.280082 1
4
 0.946759 0.27713 0.27713 1
4
 0.954338 0.281599 0.281599 1
4
 0.95316 0.278734 0.278734 1
4
 0.946601 0.271262 0.271262 1
4
 0.942834 0.269101 0.269101 1
4
 0.944052 0.271994 0.271994 1
4
 0.95177 0.276305 0.276305 1
4
 0.942252 0.267283 0.267283 1
4
 0.945167 0.267432 0.267432 1
4
 0.941512 0.265106 0.265106 1
4
 0.949742 0.271466 0.271466 1
4
 0.951183 0.274437 0.274437 1
4
 0.939715 0.268003 0.268003 1
4
 0.937766 0.262994 0.262994 1
4
 0.942251 0.273595 0.273595 1
4
 0.977443 0.293479 0.293479 1
4
 0.980796 0.297425 0.297425 1
4
 0.980687 0.294191 0.294191 1
4
 0.985379 0.297496 0.297496 1
4
 0.987594 0.300564 0.300564 1
4
 0.939671 0.237578 0.237578 1
4
 0.935617 0.233856 0.233856 1
4
 0.931788 0.236461 0.236461 1
4
 0.938036 0.238911 0.238911 1
4
 0.932888 0.235617 0.235617 1
4
 0.935353 0.24002 0.24002 1
4
 0.939142 0.24206 0.24206 1
4
 0.924596 0.231592 0.231592 1
4
 0.928081 0.233018 0.233018 1
4
 0.930533 0.237373 0.237373 1
4
 0.926363 0.234498 0.234498 1
4
 0.935407 0.234983 0.234983 1
4
 0.934304 0.235432 0.235432 1
4
 0.921642 0.227424 0.227424 1
4
 0.925687 0.230765 0.230765 1
4
 0.926208 0.228388 0.228388 1
4
 0.930273 0.231744 0.231744 1
4
 0.925116 0.228824 0.228824 1
4
 0.995118 0.269984 0.269984 1
4
 0.995285 0.271264 0.271264 1
4
 1 0.276705 0.276705 0.996926
4
 0.998531 0.274527 0.274527 1
4
 1 0.274857 0.274857 0.996702
4
 0.990657 0.268052 0.268052 1
4
 0.98594 0.264192 0.264192 1
4
 0.986106 0.265444 0.265444 1
4
 0.994056 0.272563 0.272563 1
4
 0.988545 0.26868 0.26868 1
4
 0.983838 0.264811 0.264811 1
4
 1 0.337405 0.337405 0.959534
4
 1 0.337402 0.337402 0.965046
4
 1 0.341539 0.341539 0.960128
4
 1 0.336076 0.336076 0.9638
4
 1 0.340944 0.340944 0.956844
4
 1 0.342934 0.342934 0.956737
4
 1 0.337547 0.337547 0.954
4
 1 0.334608 0.334608 0.962394
4
 1 0.339455 0.339455 0.955448
4
 1 0.340284 0.340284 0.952288
4
 1 0.335346 0.335346 0.954857
4
 1 0.332434 0.332434 0.960611
4
 1 0.332144 0.332144 0.96315
4
 1 0.340043 0.340043 0.964234
4
 1 0.334605 0.334605 0.967922
4
 1 0.335412 0.335412 0.972936
4
 1 0.338544 0.338544 0.96814
4
 1 0.332681 0.332681 0.974029
4
 1 0.345619 0.345619 0.955932
4
 1 0.348216 0.348216 0.955825
4
 1 0.342695 0.342695 0.963206
4
 1 0.345582 0.345582 0.960776
4
 1 0.341921 0.341921 0.948179
4
 1 0.336959 0.336959 0.950737
4
 1 0.330445 0.330445 0.970697
4
 1 0.330836 0.330836 0.967432
4
 1 0.331374 0.331374 0.972771
4
 1 0.346676 0.346676 0.948553
4
 1 0.345017 0.345017 0.952663
4
 1 0.343853 0.343853 0.949618
4
 1 0.348699 0.348699 0.948447
4
 1 0.347523 0.347523 0.945415
4
 1 0.352421 0.352421 0.944249
4
 1 0.350735 0.350735 0.948341
4
 1 0.349639 0.349639 0.95245
4
 0.969081 0.288308 0.288308 1
4
 0.967015 0.289466 0.289466 1
4
 0.972406 0.292184 0.292184 1
4
 0.962086 0.285929 0.285929 1
4
 0.965605 0.285037 0.285037 1
4
 0.960899 0.28302 0.28302 1
4
 0.963655 0.283124 0.283124 1
4
 0.972188 0.287777 0.287777 1
4
 0.975415 0.288475 0.288475 1
4
 0.968701 0.284511 0.284511 1
4
 0.97088 0.283164 0.283164 1
4
 0.966745 0.282602 0.282602 1
4
 0.966691 0.281062 0.281062 1
4
 0.976071 0.293983 0.293983 1
4
 0.975962 0.290787 0.290787 1
4
 0.969245 0.286792 0.286792 1
4
 0.97399 0.295164 0.295164 1
4
 0.973006 0.296635 0.296635 1
4
 0.965115 0.292007 0.292007 1
4
 0.969406 0.294956 0.294956 1
4
 0.963654 0.288845 0.288845 1
4
 0.97843 0.29942 0.29942 1
4
 0.981787 0.300926 0.300926 1
4
 0.985211 0.30258 0.30258 1
4
 0.986208 0.30108 0.30108 1
4
 1 0.337291 0.337291 0.994033
4
 1 0.337381 0.337381 0.990133
4
 1 0.341357 0.341357 0.9847
4
 0.999696 0.332467 0.332467 1
4
 1 0.332657 0.332657 0.99638
4
 1 0.329495 0.329495 0.999517
4
 0.995048 0.328531 0.328531 1
4
 0.994434 0.325767 0.325767 1
4
 1 0.334977 0.334977 0.995429
4
 0.995998 0.331137 0.331137 1
4
 1 0.331882 0.331882 0.994646
4
 1 0.336403 0.336403 0.987357
4
 1 0.339015 0.339015 0.986083
4
 0.996167 0.325574 0.325574 1
4
 1 0.330005 0.330005 0.992916
4
 1 0.326461 0.326461 0.998955
4
 0.997063 0.324199 0.324199 1
4
 0.986979 0.322328 0.322328 1
4
 0.990755 0.324464 0.324464 1
4
 0.987089 0.324246 0.324246 1
4
 0.98637 0.319617 0.319617 1
4
 0.982721 0.319402 0.319402 1
4
 0.980407 0.314272 0.314272 1
4
 0.977932 0.313985 0.313985 1
4
 0.986869 0.317233 0.317233 1
4
 0.984157 0.316354 0.316354 1
4
 0.991034 0.320376 0.320376 1
4
 0.978042 0.315853 0.315853 1
4
 0.978975 0.318359 0.318359 1
4
 1 0.302464 0.302464 0.967154
4
 1 0.302432 0.302432 0.972055
4
 1 0.304583 0.304583 0.966449
4
 1 0.299186 0.299186 0.972382
4
 1 0.298974 0.298974 0.976047
4
 1 0.305317 0.305317 0.963036
4
 1 0.301217 0.301217 0.964605
4
 1 0.299908 0.299908 0.968948
4
 1 0.305285 0.305285 0.967916
4
 1 0.299663 0.299663 0.977528
4
 1 0.307162 0.307162 0.967101
4
 1 0.305482 0.305482 0.972274
4
 1 0.303038 0.303038 0.977145
4
 1 0.300619 0.300619 0.979342
4
 1 0.309347 0.309347 0.961524
4
 1 0.297953 0.297953 0.969818
4
 1 0.297108 0.297108 0.967533
4
 1 0.294284 0.294284 0.979065
4
 1 0.294075 0.294075 0.982756
4
 1 0.291129 0.291129 0.982314
4
 1 0.289938 0.289938 0.988511
4
 1 0.288563 0.288563 0.987346
4
 1 0.296447 0.296447 0.977857
4
 1 0.293477 0.293477 0.977417
4
 1 0.295816 0.295816 0.97189
4
 1 0.29207 0.29207 0.987291
4
 1 0.297182 0.297182 0.983364
4
 1 0.294607 0.294607 0.986572
4
 1 0.292645 0.292645 0.975114
4
 1 0.287773 0.287773 0.985684
4
 1 0.288774 0.288774 0.980935
4
 1 0.293976 0.293976 0.969164
4
 1 0.291075 0.291075 0.975388
4
 0.940667 0.263142 0.263142 1
4
 0.939823 0.261192 0.261192 1
4
 0.943577 0.263289 0.263289 1
4
 0.947985 0.266888 0.266888 1
4
 0.94889 0.269455 0.269455 1
4
 0.936188 0.25892 0.25892 1
4
 0.980795 0.302425 0.302425 1
4
 0.973825 0.299209 0.299209 1
4
 0.978978 0.303839 0.303839 1
4
 0.982779 0.305485 0.305485 1
4
 0.987593 0.305617 0.305617 1
4
 0.986151 0.307021 0.307021 1
4
 0.990536 0.309606 0.309606 1
4
 0.994717 0.309045 0.309045 1
4
 0.99204 0.305773 0.305773 1
4
 0.996785 0.312317 0.312317 1
4
 0.99399 0.311308 0.311308 1
4
 1 0.314442 0.314442 0.996096
4
 1 0.311922 0.311922 0.998111
4
 0.995723 0.307513 0.307513 1
4
 1 0.313942 0.313942 0.999514
4
 1 0.356804 0.356804 0.943296
4
 1 0.35337 0.35337 0.948235
4
 1 0.361206 0.361206 0.941709
4
 1 0.358058 0.358058 0.947171
4
 1 0.355689 0.355689 0.947383
4
 1 0.360113 0.360113 0.946427
4
 1 0.354612 0.354612 0.95213
4
 1 0.351929 0.351929 0.957061
4
 1 0.354429 0.354429 0.957008
4
 1 0.349601 0.349601 0.957276
4
 0.973392 0.282611 0.282611 1
4
 0.975416 0.282289 0.282289 1
4
 0.979753 0.285617 0.285617 1
4
 0.981625 0.288719 0.288719 1
4
 1 0.283675 0.283675 0.978843
4
 1 0.282703 0.282703 0.978183
4
 1 0.284849 0.284849 0.972925
4
 1 0.287803 0.287803 0.972215
4
 1 0.285079 0.285079 0.978404
4
 1 0.280028 0.280028 0.98441
4
 1 0.28058 0.28058 0.989342
4
 1 0.278706 0.278706 0.989119
4
 1 0.282382 0.282382 0.984631
4
 1 0.281187 0.281187 0.978458
4
 1 0.277751 0.277751 0.988453
4
 1 0.3088 0.3088 0.991964
4
 1 0.306059 0.306059 0.996597
4
 0.99959 0.305082 0.305082 1
4
 1 0.310867 0.310867 0.991964
4
 1 0.310255 0.310255 0.995647
4
 0.995948 0.303497 0.303497 1
4
 0.998187 0.306627 0.306627 1
4
 1 0.306873 0.306873 0.991908
4
 1 0.311693 0.311693 0.987296
4
 1 0.312425 0.312425 0.983368
4
 1 0.312304 0.312304 0.98072
4
 1 0.306042 0.306042 0.99046
4
 1 0.309142 0.309142 0.985246
4
 0.998413 0.300611 0.300611 1
4
 0.999647 0.303196 0.303196 1
4
 1 0.303325 0.303325 0.995087
4
 0.994608 0.298632 0.298632 1
4
 0.988095 0.291439 0.291439 1
4
 0.989983 0.294605 0.294605 1
4
 0.994553 0.295523 0.295523 1
4
 0.999872 0.300235 0.300235 1
4
 0.992208 0.299635 0.299635 1
4
 0.991206 0.297138 0.297138 1
4
 0.939085 0.259065 0.259065 1
4
 0.934718 0.255146 0.255146 1
4
 0.941461 0.258008 0.258008 1
4
 0.938453 0.257195 0.257195 1
4
 0.94724 0.264715 0.264715 1
4
 0.945859 0.261971 0.261971 1
4
 0.935927 0.251939 0.251939 1
4
 0.937084 0.254105 0.254105 1
4
 0.938243 0.252052 0.252052 1
4
 0.943473 0.256548 0.256548 1
4
 0.94448 0.258824 0.258824 1
4
 0.932936 0.251144 0.251144 1
4
 0.930374 0.246308 0.246308 1
4
 0.93409 0.249115 0.249115 1
4
 0.95514 0.291722 0.291722 1
4
 0.957664 0.291773 0.291773 1
4
 0.961274 0.29357 0.29357 1
4
 0.965547 0.299516 0.299516 1
4
 0.966741 0.299085 0.299085 1
4
 0.962732 0.298769 0.298769 1
4
 0.95917 0.296583 0.296583 1
4
 0.94745 0.279275 0.279275 1
4
 0.952891 0.285129 0.285129 1
4
 0.948514 0.281884 0.281884 1
4
 0.956483 0.286885 0.286885 1
4
 0.955035 0.283779 0.283779 1
4
 0.951928 0.287986 0.287986 1
4
 0.947555 0.284709 0.284709 1
4
 0.949631 0.289918 0.289918 1
4
 0.953425 0.292734 0.292734 1
4
 0.944634 0.278913 0.278913 1
4
 0.950059 0.284759 0.284759 1
4
 0.958041 0.289811 0.289811 1
4
 1 0.338017 0.338017 0.980175
4
 1 0.340366 0.340366 0.981939
4
 1 0.334501 0.334501 0.985639
4
 1 0.341099 0.341099 0.976714
4
 1 0.342305 0.342305 0.978032
4
 1 0.33659 0.33659 0.976933
4
 1 0.334771 0.334771 0.9826
4
 1 0.339733 0.339733 0.972118
4
 1 0.341374 0.341374 0.973702
4
 1 0.33309 0.33309 0.982379
4
 1 0.338027 0.338027 0.971899
4
 1 0.33177 0.33177 0.98089
4
 1 0.332174 0.332174 0.97781
4
 1 0.344963 0.344963 0.97677
4
 1 0.327731 0.327731 0.994087
4
 1 0.327738 0.327738 0.991355
4
 1 0.329977 0.329977 0.98658
4
 1 0.344058 0.344058 0.964668
4
 1 0.342831 0.342831 0.968685
4
 1 0.34572 0.34572 0.966241
4
 1 0.349421 0.349421 0.96218
4
 1 0.345705 0.345705 0.971573
4
 1 0.348176 0.348176 0.966187
4
 1 0.349406 0.349406 0.96749
4
 0.965928 0.294541 0.294541 1
4
 0.960196 0.288438 0.288438 1
4
 0.967122 0.297073 0.297073 1
4
 0.975357 0.30212 0.30212 1
4
 0.971421 0.300074 0.300074 1
4
 0.957559 0.282413 0.282413 1
4
 0.932467 0.244734 0.244734 1
4
 0.928027 0.241209 0.241209 1
4
 0.932676 0.246418 0.246418 1
4
 0.931525 0.24229 0.24229 1
4
 0.936192 0.247523 0.247523 1
4
 0.940407 0.249723 0.249723 1
4
 0.939299 0.247297 0.247297 1
4
 0.935037 0.243376 0.243376 1
4
 0.930585 0.239871 0.239871 1
4
 0.926414 0.236966 0.236966 1
4
 0.941621 0.253673 0.253673 1
4
 0.940617 0.251442 0.251442 1
4
 0.983886 0.294766 0.294766 1
4
 0.99808 0.284674 0.284674 1
4
 0.994723 0.283854 0.283854 1
4
 1 0.287739 0.287739 0.996369
4
 0.996232 0.286482 0.286482 1
4
 1 0.289658 0.289658 0.999115
4
 1 0.290238 0.290238 0.995643
4
 0.998025 0.281709 0.281709 1
4
 1 0.284758 0.284758 0.996424
4
 1 0.283408 0.283408 0.99525
4
 0.996122 0.278218 0.278218 1
4
 1 0.280879 0.280879 0.996703
4
 0.998755 0.278731 0.278731 1
4
 0.992492 0.280957 0.280957 1
4
 1 0.285442 0.285442 0.998609
4
 0.988654 0.277123 0.277123 1
4
 0.991935 0.278258 0.278258 1
4
 0.985328 0.276325 0.276325 1
4
 0.990653 0.282741 0.282741 1
4
 0.985494 0.278562 0.278562 1
4
 1 0.286596 0.286596 0.991903
4
 1 0.290463 0.290463 0.992349
4
 1 0.282692 0.282692 0.99218
4
 1 0.286229 0.286229 0.98596
4
 0.979262 0.269647 0.269647 1
4
 0.982512 0.270752 0.270752 1
4
 0.979868 0.267439 0.267439 1
4
 0.97356 0.265632 0.265632 1
4
 0.984776 0.273671 0.273671 1
4
 0.981683 0.274761 0.274761 1
4
 0.977778 0.271213 0.271213 1
4
 0.975803 0.268496 0.268496 1
4
 0.990044 0.274809 0.274809 1
4
 0.985385 0.27143 0.27143 1
4
 0.987379 0.271447 0.271447 1
4
 0.994669 0.275334 0.275334 1
4
 0.989155 0.271412 0.271412 1
4
 0.984501 0.268074 0.268074 1
4
 1 0.308826 0.308826 0.972602
4
 1 0.311827 0.311827 0.967537
4
 1 0.311998 0.311998 0.971239
4
 1 0.306354 0.306354 0.977475
4
 1 0.307322 0.307322 0.979068
4
 1 0.312394 0.312394 0.974188
4
 1 0.309232 0.309232 0.978684
4
 1 0.309547 0.309547 0.965853
4
 1 0.312555 0.312555 0.960823
4
 1 0.310845 0.310845 0.965962
4
 1 0.30539 0.30539 0.975884
4
 1 0.315905 0.315905 0.959637
4
 1 0.314038 0.314038 0.964608
4
 1 0.318481 0.318481 0.960986
4
 1 0.320536 0.320536 0.956625
4
 1 0.316078 0.316078 0.963309
4
 1 0.321064 0.321064 0.959261
4
 1 0.316599 0.316599 0.965963
4
 1 0.317001 0.317001 0.968897
4
 1 0.320726 0.320726 0.963364
4
 1 0.322796 0.322796 0.958992
4
 1 0.325788 0.325788 0.953837
4
 1 0.31461 0.31461 0.971239
4
 0.979039 0.280602 0.280602 1
4
 0.986988 0.285868 0.285868 1
4
 0.981792 0.281512 0.281512 1
4
 0.983722 0.28613 0.28613 1
4
 0.990151 0.290139 0.290139 1
4
 0.96778 0.2712 0.2712 1
4
 0.964959 0.267384 0.267384 1
4
 0.959933 0.263432 0.263432 1
4
 0.959178 0.26568 0.26568 1
4
 0.965337 0.270501 0.270501 1
4
 0.957295 0.262702 0.262702 1
4
 0.970665 0.272005 0.272005 1
4
 0.97624 0.276782 0.276782 1
4
 0.971046 0.275176 0.275176 1
4
 0.97816 0.281322 0.281322 1
4
 1 0.301053 0.301053 0.986352
4
 1 0.302003 0.302003 0.987959
4
 1 0.29865 0.29865 0.988569
4
 1 0.295471 0.295471 0.995253
4
 1 0.296879 0.296879 0.996427
4
 1 0.297694 0.297694 0.998108
4
 1 0.300833 0.300833 0.992798
4
 1 0.303903 0.303903 0.982372
4
 1 0.300528 0.300528 0.982978
4
 1 0.303681 0.303681 0.988792
4
 1 0.306757 0.306757 0.983587
4
 1 0.294956 0.294956 0.991849
4
 1 0.295547 0.295547 0.988402
4
 0.996791 0.288779 0.288779 1
4
 0.995616 0.289813 0.289813 1
4
 0.990764 0.28585 0.28585 1
4
 0.986989 0.281142 0.281142 1
4
 0.985548 0.281493 0.281493 1
4
 1 0.292401 0.292401 0.995084
4
 1 0.293207 0.293207 0.999733
4
 0.994219 0.290311 0.290311 1
4
 0.997405 0.294647 0.294647 1
4
 0.984166 0.281977 0.281977 1
4
 0.992545 0.290618 0.290618 1
4
 1 0.32176 0.32176 0.982321
4
 1 0.318863 0.318863 0.986023
4
 1 0.323847 0.323847 0.978083
4
 1 0.31693 0.31693 0.984363
4
 1 0.316307 0.316307 0.988018
4
 1 0.320503 0.320503 0.978357
4
 1 0.32423 0.32423 0.974793
4
 1 0.320503 0.320503 0.98691
4
 1 0.325513 0.325513 0.978963
4
 1 0.323044 0.323044 0.986744
4
 1 0.326428 0.326428 0.981054
4
 1 0.315071 0.315071 0.992634
4
 1 0.320134 0.320134 0.990463
4
 1 0.317112 0.317112 0.994029
4
 1 0.328012 0.328012 0.97146
4
 1 0.328545 0.328545 0.976821
4
 0.963818 0.281635 0.281635 1
4
 0.976562 0.304717 0.304717 1
4
 0.982061 0.30978 0.30978 1
4
 0.986926 0.311613 0.311613 1
4
 0.984325 0.308457 0.308457 1
4
 0.986205 0.312849 0.312849 1
4
 0.971421 0.30309 0.30309 1
4
 0.974206 0.307273 0.307273 1
4
 0.971747 0.306993 0.306993 1
4
 0.967392 0.30277 0.30277 1
4
 0.978098 0.307682 0.307682 1
4
 0.975411 0.30683 0.30683 1
4
 0.980903 0.311928 0.311928 1
4
 0.987757 0.315893 0.315893 1
4
 0.975738 0.31078 0.31078 1
4
 0.996616 0.320314 0.320314 1
4
 0.995888 0.321585 0.321585 1
4
 1 0.324217 0.324217 0.997385
4
 0.990757 0.313301 0.313301 1
4
 0.99265 0.317762 0.317762 1
4
 0.999362 0.321203 0.321203 1
4
 0.995162 0.315938 0.315938 1
4
 0.99254 0.312739 0.312739 1
4
 1 0.314516 0.314516 0.983368
4
 1 0.313162 0.313162 0.990963
4
 1 0.317316 0.317316 0.981272
4
 1 0.315132 0.315132 0.976819
4
 1 0.318061 0.318061 0.977368
4
 1 0.318697 0.318697 0.973971
4
 0.999196 0.309204 0.309204 1
4
 1 0.318711 0.318711 0.968626
4
 1 0.318574 0.318574 0.971349
4
 1 0.31182 0.31182 0.978685
4
 0.952574 0.270914 0.270914 1
4
 0.954234 0.268506 0.268506 1
4
 0.956701 0.272486 0.272486 1
4
 0.950277 0.265552 0.265552 1
4
 0.954929 0.276513 0.276513 1
4
 0.957668 0.276615 0.276615 1
4
 0.957615 0.275107 0.275107 1
4
 0.959121 0.279642 0.279642 1
4
 1 0.331597 0.331597 0.952179
4
 1 0.331862 0.331862 0.954696
4
 1 0.331855 0.331855 0.957326
4
 1 0.325445 0.325445 0.957916
4
 1 0.325705 0.325705 0.960448
4
 1 0.322317 0.322317 0.965802
4
 1 0.328724 0.328724 0.955285
4
 1 0.328979 0.328979 0.960449
4
 1 0.325565 0.325565 0.963149
4
 1 0.324907 0.324907 0.969171
4
 1 0.328686 0.328686 0.965641
4
 1 0.325558 0.325558 0.965803
4
 1 0.324624 0.324624 0.971732
4
 1 0.321535 0.321535 0.971895
4
 0.974816 0.272546 0.272546 1
4
 0.980415 0.277333 0.277333 1
4
 0.977942 0.273408 0.273408 1
4
 0.973394 0.272888 0.272888 1
4
 0.970938 0.269026 0.269026 1
4
 0.962794 0.264214 0.264214 1
4
 0.965122 0.264651 0.264651 1
4
 0.968216 0.265487 0.265487 1
4
 0.972084 0.267174 0.267174 1
4
 0.955042 0.253786 0.253786 1
4
 0.955471 0.255582 0.255582 1
4
 0.961067 0.259014 0.259014 1
4
 0.964906 0.260659 0.260659 1
4
 0.954505 0.257284 0.257284 1
4
 0.960095 0.260739 0.260739 1
4
 0.955148 0.259588 0.259588 1
4
 0.950815 0.252508 0.252508 1
4
 0.9465 0.24975 0.24975 1
4
 0.946022 0.24788 0.24788 1
4
 0.956813 0.257709 0.257709 1
4
 0.951882 0.256572 0.256572 1
4
 0.948042 0.253986 0.253986 1
4
 0.946925 0.251518 0.251518 1
4
 0.966261 0.262828 0.262828 1
4
 0.960848 0.269536 0.269536 1
4
 0.967778 0.277605 0.277605 1
4
 0.961118 0.271518 0.271518 1
4
 0.967019 0.274428 0.274428 1
4
 0.96409 0.274859 0.274859 1
4
 0.969792 0.277289 0.277289 1
4
 0.956542 0.266717 0.266717 1
4
 0.962415 0.269575 0.269575 1
4
 0.954397 0.261803 0.261803 1
4
 0.95156 0.261463 0.261463 1
4
 0.952575 0.263783 0.263783 1
4
 0.965932 0.278773 0.278773 1
4
 0.96642 0.278081 0.278081 1
4
 0.959284 0.272661 0.272661 1
4
 0.959769 0.271984 0.271984 1
4
 0.952842 0.265723 0.265723 1
4
 0.971372 0.277329 0.277329 1
4
 0.975691 0.280597 0.280597 1
4
 0.961818 0.27822 0.27822 1
4
 0.962251 0.276016 0.276016 1
4
 0.974205 0.31296 0.31296 1
4
 0.968914 0.306226 0.306226 1
4
 0.970438 0.309721 0.309721 1
4
 0.971364 0.312179 0.312179 1
4
 0.966088 0.305461 0.305461 1
4
 0.961003 0.299805 0.299805 1
4
 0.962514 0.303227 0.303227 1
4
 0.96392 0.306403 0.306403 1
4
 0.950964 0.294778 0.294778 1
4
 0.954763 0.297641 0.297641 1
4
 0.956158 0.300758 0.300758 1
4
 0.953638 0.294749 0.294749 1
4
 0.958846 0.300729 0.300729 1
4
 0.978489 0.283523 0.283523 1
4
 1 0.278374 0.278374 0.998159
4
 1 0.278299 0.278299 0.993406
4
 1 0.281969 0.281969 0.988898
4
 1 0.283676 0.283676 0.9874
4
 0.99177 0.271913 0.271913 1
4
 1 0.291097 0.291097 0.970253
4
 1 0.290088 0.290088 0.974949
4
 1 0.28649 0.28649 0.977965
4
 1 0.288224 0.288224 0.976483
4
 1 0.285497 0.285497 0.982699
4
 0.949692 0.258533 0.258533 1
4
 0.94868 0.25626 0.25626 1
4
 0.945861 0.255927 0.255927 1
4
 0.94788 0.260489 0.260489 1
4
 0.943739 0.251212 0.251212 1
4
 0.984716 0.289981 0.289981 1
4
 0.989262 0.290884 0.290884 1
4
 0.990816 0.301152 0.301152 1
4
 0.987595 0.295594 0.295594 1
4
 1 0.299348 0.299348 0.998949
4
 1 0.305568 0.305568 0.988404
4
 0.93835 0.244827 0.244827 1
4
 0.942152 0.246908 0.246908 1
4
 0.929906 0.238028 0.238028 1
4
 0.937877 0.242994 0.242994 1
4
 1 0.323447 0.323447 0.992468
4
 1 0.325657 0.325657 0.987687
4
 1 0.326053 0.326053 0.984586
4
 1 0.319625 0.319625 0.993862
4
 1 0.319488 0.319488 0.996656
4
 1 0.326439 0.326439 0.989853
4
 1 0.320255 0.320255 0.998842
4
 1 0.329069 0.329069 0.981992
4
 0.999756 0.316394 0.316394 1
1
 1

